fitness = 1.0
1 7 6 4 6 4 6 4 6 4 6 4 6 4 6 4 6 4 6 4 6 4 6 4 6 4 6 4 6 4 6 4 6 4 6 4 6 4 6 4 6 4 6 4 6 4 6 4 6 4 6 4 6 4 6 4 6 4 6 4 6 4 6 4 6 4 6 4 6 4 6 4 6 4 6 4 6 4 6 4 6 4 6 4 6 4 6 4 6 4 6 4 6 4 6 4 6 4 6 4 6 4 6 4 6 4 6 4 6 4 6 4 6 4 6 4 6 4 6 4 6 4 6 4 6 4 6 4 6 4 6 4 6 4 6 4 6 4 6 4 6 4 6 4 6 4 6 4 6 4 6 4 6 4 6 4 6 4 6 8 1 7 6 8 1 7 6 8 1 7 6 8 1 7 6 8 1 7 6 8 1 7 6 8 1 7 6 8 1 7 6 8 1 7 6 8 1 7 6 8 1 7 6 8 1 7 6 8 1 7 6 8 1 7 6 8 1 7 6 8 1 7 6 8 1 7 6 8 1 7 6 8 1 7 6 8 1 7 6 8 1 7 6 8 1 7 6 8 1 7 6 8 1 7 6 8 1 7 6 8 1 7 6 8 1 7 6 8 1 7 6 8 1 7 6 8 1 7 6 8 1 7 6 8 1 7 6 8 1 7 6 8 1 5 8 1 5 8 1 5 8 1 5 8 1 5 8 1 5 8 1 5 8 1 5 8 1 5 8 1 5 8 1 5 8 1 5 8 1 5 8 1 5 8 1 5 8 1 5 8 1 5 8 1 5 8 1 5 8 1 5 8 1 5 8 1 5 8 1 5 8 1 5 8 1 5 8 1 5 8 1 5 8 1 5 8 1 5 8 1 5 8 1 5 8 1 5 8 1 5 8 1 5 8 1 5 8 1 5 8 1 5 8 1 5 8 1 5 8 1 5 8 